(set-option :pp.decimal true)
(set-option :pp.decimal_precision 7)
(declare-const conc1 Real)
(declare-const conc2 Real)
(declare-const conc3 Real)
(declare-const conc4 Real)
(declare-const conc5 Real)
(declare-const conc6 Real)
(declare-const conc7 Real)
(declare-const conc8 Real)
(declare-const conc9 Real)
(declare-const conc10 Real)
(declare-const conc11 Real)
(declare-const conc12 Real)
(declare-const conc13 Real)
(declare-const conc14 Real)
(declare-const flow1 Real)
(declare-const flow2 Real)
(declare-const flow3 Real)
(declare-const flow4 Real)
(declare-const flow5 Real)
(declare-const flow6 Real)
(declare-const flow7 Real)
(declare-const flow8 Real)
(declare-const flow9 Real)
(declare-const flow10 Real)
(declare-const flow11 Real)
(declare-const flow12 Real)
(declare-const flow13 Real)
(declare-const flow14 Real)
(declare-const flow15 Real)
(declare-const flow16 Real)
(declare-const flow17 Real)
(declare-const flow18 Real)
(declare-const flow19 Real)
(declare-const flow20 Real)
(declare-const flow21 Real)
(declare-const flow22 Real)
(declare-const flow23 Real)
(assert (>= conc1 0))
(assert (>= conc2 0))
(assert (>= conc3 0))
(assert (>= conc4 0))
(assert (>= conc5 0))
(assert (>= conc6 0))
(assert (>= conc7 0))
(assert (>= conc8 0))
(assert (>= conc9 0))
(assert (>= conc10 0))
(assert (>= conc11 0))
(assert (>= conc12 0))
(assert (>= conc13 0))
(assert (>= conc14 0))
(assert (= flow1 (+ (* 0.136601 conc1 conc1) (* -1. 4.62948e-05 conc3))))
(assert (= flow2 (+ (* 0.561763 conc2 conc2) (* -1. 7.85144e-05 conc4))))
(assert (= flow3 (+ (* 0.189292 conc2 conc1) (* -1. 5.65719e-05 conc5))))
(assert (= flow4 (+ (* 0.315254 conc2 conc3) (* -1. 0.00427691 conc6))))
(assert (= flow5 (+ (* 0.187202 conc1 conc5) (* -1. 0.00287998 conc6))))
(assert (= flow6 (+ (* 0.506086 conc1 conc3) (* -1. 0.00318227 conc7))))
(assert (= flow7 (+ (* 0.354296 conc2 conc5) (* -1. 0.00280001 conc8))))
(assert (= flow8 (+ (* 0.245795 conc1 conc4) (* -1. 0.00415374 conc8))))
(assert (= flow9 (+ (* 0.174922 conc2 conc4) (* -1. 0.00527085 conc9))))
(assert (= flow10 (+ (* 0.432999 conc5 conc4) (* -1. 0.403118 conc10))))
(assert (= flow11 (+ (* 0.257224 conc2 conc8) (* -1. 0.00423507 conc10))))
(assert (= flow12 (+ (* 0.165669 conc1 conc9) (* -1. 0.00152975 conc10))))
(assert (= flow13 (+ (* 0.856979 conc2 conc9) (* -1. 0.00830737 conc11))))
(assert (= flow14 (+ (* 0.0855757 conc4 conc4) (* -1. 0.178848 conc11))))
(assert (= flow15 (+ (* 0.300079 conc1 conc7) (* -1. 0.00771985 conc12))))
(assert (= flow16 (+ (* 0.446401 conc3 conc3) (* -1. 0.213075 conc12))))
(assert (= flow17 (+ (* 0.244326 conc1 conc6) (* -1. 0.00409837 conc13))))
(assert (= flow18 (+ (* 0.176775 conc2 conc7) (* -1. 0.00639764 conc13))))
(assert (= flow19 (+ (* 0.538261 conc5 conc3) (* -1. 0.40986 conc13))))
(assert (= flow20 (+ (* 0.41985 conc2 conc6) (* -1. 0.00615933 conc14))))
(assert (= flow21 (+ (* 0.944622 conc5 conc5) (* -1. 0.71336 conc14))))
(assert (= flow22 (+ (* 0.134876 conc4 conc3) (* -1. 0.192065 conc14))))
(assert (= flow23 (+ (* 0.323671 conc1 conc8) (* -1. 0.00924338 conc14))))
(assert (= (+ (* -2 flow1) (* -1 flow3) (* -1 flow5) (* -1 flow6) (* -1 flow8) (* -1 flow12) (* -1 flow15) (* -1 flow17) (* -1 flow23) 10.2806 (* -1. 0.095989 conc1)) 0))
(assert (= (+ (* -2 flow2) (* -1 flow3) (* -1 flow4) (* -1 flow7) (* -1 flow9) (* -1 flow11) (* -1 flow13) (* -1 flow18) (* -1 flow20) 9.61889 (* -1. 0.0683237 conc2)) 0))
(assert (= (+ (* 1 flow1) (* -1 flow4) (* -1 flow6) (* -2 flow16) (* -1 flow19) (* -1 flow22) 0 (* -1. 0.149524 conc3)) 0))
(assert (= (+ (* 1 flow2) (* -1 flow8) (* -1 flow9) (* -1 flow10) (* -2 flow14) (* -1 flow22) 0 (* -1. 0.0789346 conc4)) 0))
(assert (= (+ (* 1 flow3) (* -1 flow5) (* -1 flow7) (* -1 flow10) (* -1 flow19) (* -2 flow21) 0 (* -1. 0.12729 conc5)) 0))
(assert (= (+ (* 1 flow4) (* 1 flow5) (* -1 flow17) (* -1 flow20) 0 (* -1. 0.115739 conc6)) 0))
(assert (= (+ (* 1 flow6) (* -1 flow15) (* -1 flow18) 0 (* -1. 0.143237 conc7)) 0))
(assert (= (+ (* 1 flow7) (* 1 flow8) (* -1 flow11) (* -1 flow23) 0 (* -1. 0.137865 conc8)) 0))
(assert (= (+ (* 1 flow9) (* -1 flow12) (* -1 flow13) 0 (* -1. 0.0763495 conc9)) 0))
(assert (= (+ (* 1 flow10) (* 1 flow11) (* 1 flow12) 0 (* -1. 0.0711749 conc10)) 0))
(assert (= (+ (* 1 flow13) (* 1 flow14) 0 (* -1. 0.0526824 conc11)) 0))
(assert (= (+ (* 1 flow15) (* 1 flow16) 0 (* -1. 0.086956 conc12)) 0))
(assert (= (+ (* 1 flow17) (* 1 flow18) (* 1 flow19) 0 (* -1. 0.12014 conc13)) 0))
(assert (= (+ (* 1 flow20) (* 1 flow21) (* 1 flow22) (* 1 flow23) 0 (* -1. 0.128407 conc14)) 0))
(check-sat)
(get-model)
